# Solution for model count
# Objective value = 9
z#1 1
z#2 1
z#3 1
z#4 0
z#5 1
z#6 0
z#7 0
z#8 0
z#9 0
z#10 0
z#11 1
z#12 0
z#13 1
z#14 0
z#15 1
z#16 0
z#17 0
z#18 1
z#19 0
z#20 0
z#21 1
z#22 0
z#23 0
z#24 0
x#24 0
x#23 0
x#22 0
x#21 1238
x#20 0
x#19 0
x#18 370
x#17 0
x#16 0
x#15 223
x#14 0
x#13 1129
x#12 0
x#11 3973
x#10 0
x#9 0
x#8 0
x#7 0
x#6 0
x#5 814
x#4 0
x#3 128
x#2 2002
x#1 123
